/* Objective function */
Max: 4 X1 + 6.5 X2 + 5.9 X3 + 5.4 X4 + 5.15 X5 + 10 X6 + 8.4 X7 + 6.25 X8;

/* Constraints */
40 X1 + 50 X2 + 80 X3 + 60 X4 + 45 X5 + 60 X6 + 30 X7 + 25 X8 <= 2500000;
40 X1 + 50 X2 + 80 X3 <= 1000000;
60 X4 + 45 X5 + 60 X6 <= 1000000;
30 X7 + 25 X8 <= 1000000;
40 X1 >= 100000;
50 X2 >= 100000;
80 X3 >= 100000;
60 X4 >= 100000;
45 X5 >= 100000;
60 X6 >= 100000;
30 X7 >= 100000;
25 X8 >= 100000;